data/CVRPLIB/Vrp-Set-XML100/instances/XML100_1314_02.vrp
NAME : XML100_1314_02
COMMENT : Generated by Queiroga, Sadykov, Uchoa, and Vidal (2021)
TYPE : CVRP
DIMENSION : 101
EDGE_WEIGHT_TYPE : EUC_2D
CAPACITY : 13
NODE_COORD_SECTION
1    408  138 
2    892  542 
3    785  788 
4    618  111 
5    524  722 
6    733  727 
7    794  779 
8    779  123 
9    238  85  
10   294  144 
11   534  629 
12   353  242 
13   972  644 
14   364  136 
15   660  561 
16   932  318 
17   281  541 
18   638  661 
19   905  892 
20   192  639 
21   350  254 
22   121  328 
23   807  129 
24   663  760 
25   955  326 
26   635  679 
27   846  323 
28   317  58  
29   52   931 
30   10   42  
31   351  944 
32   381  416 
33   971  282 
34   405  210 
35   482  954 
36   343  787 
37   856  16  
38   618  108 
39   174  776 
40   882  134 
41   912  238 
42   974  937 
43   639  416 
44   629  696 
45   776  77  
46   259  13  
47   825  300 
48   921  263 
49   631  494 
50   787  697 
51   91   523 
52   715  597 
53   652  865 
54   288  804 
55   715  591 
56   354  164 
57   579  110 
58   913  303 
59   23   592 
60   718  580 
61   56   912 
62   867  126 
63   954  363 
64   595  704 
65   952  255 
66   883  200 
67   942  313 
68   969  216 
69   817  158 
70   914  229 
71   700  265 
72   856  121 
73   382  170 
74   549  501 
75   820  207 
76   257  830 
77   303  183 
78   572  978 
79   932  439 
80   173  734 
81   529  745 
82   75   421 
83   876  303 
84   578  486 
85   839  737 
86   45   878 
87   768  211 
88   799  11  
89   357  171 
90   69   684 
91   55   871 
92   135  238 
93   399  727 
94   437  225 
95   417  335 
96   592  577 
97   851  272 
98   603  625 
99   683  687 
100  750  578 
101  485  451 
DEMAND_SECTION
1    0   
2    1   
3    1   
4    1   
5    1   
6    1   
7    1   
8    1   
9    1   
10   1   
11   1   
12   1   
13   1   
14   1   
15   1   
16   1   
17   1   
18   1   
19   1   
20   1   
21   1   
22   1   
23   1   
24   1   
25   1   
26   1   
27   1   
28   1   
29   1   
30   1   
31   1   
32   1   
33   1   
34   1   
35   1   
36   1   
37   1   
38   1   
39   1   
40   1   
41   1   
42   1   
43   1   
44   1   
45   1   
46   1   
47   1   
48   1   
49   1   
50   1   
51   1   
52   1   
53   1   
54   1   
55   1   
56   1   
57   1   
58   1   
59   1   
60   1   
61   1   
62   1   
63   1   
64   1   
65   1   
66   1   
67   1   
68   1   
69   1   
70   1   
71   1   
72   1   
73   1   
74   1   
75   1   
76   1   
77   1   
78   1   
79   1   
80   1   
81   1   
82   1   
83   1   
84   1   
85   1   
86   1   
87   1   
88   1   
89   1   
90   1   
91   1   
92   1   
93   1   
94   1   
95   1   
96   1   
97   1   
98   1   
99   1   
100  1   
101  1   
DEPOT_SECTION
1
-1
EOF
