data/CVRPLIB/Vrp-Set-XML100/solutions/XML100_1314_02.sol
Route #1: 16 92 35 53 75 30 34 77 52 23 43 25 17
Route #2: 48 14 51 54 59 99 78 62 24 66 15 57 96
Route #3: 91 21 81 50 58 89 90 85 60 28 38 79 19
Route #4: 86 74 65 69 40 67 64 32 47 82 26 46 70
Route #5: 37 44 87 36 71 61 39 68 22 7 3 56
Route #6: 11 20 31 10 4 80 63 97 95 73 100 94 33
Route #7: 13 27 45 29 8 9 76 55 88 72
Route #8: 42 1 12 41 18 2 6 84 49 5 98 83 93
Cost 12528
